152 118183
1 35 36 34 47 51 73 75 92 78 79 53 52 46 72 71 70 69 54 45 44 55 56 68 67 66 65 57 82 86 110 109 108 85 84 41 60 61 62 63 83 105 106 107 117 140 139 141 142 143 43 27 28 38 29 30 31 32 33 37 48 49 50 74 76 77 93 94 95 116 115 96 91 120 133 134 146 145 144 135 136 119 137 138 118 113 114 99 97 98 90 80 100 89 81 88 102 101 121 132 131 147 148 149 130 129 122 123 127 151 125 124 126 152 150 128 103 112 111 104 87 64 59 58 42 40 18 17 9 8 10 19 21 20 7 11 22 23 39 6 12 24 25 26 5 13 4 14 3 15 2 16 
